CMD:
./solvers/bin/cadical --plain --no-reduce -t 1600 ./data/cnfs//6s210b037/6s210b037.22.cnf

c --- [ banner ] -------------------------------------------------------------
c 
c CaDiCaL SAT Solver
c Copyright (c) 2016-2024
c A. Biere, M. Fleury, N. Froleyks, K. Fazekas, F. Pollitt, T. Faller
c JKU Linz, University of Freiburg, TU Wien
c 
c Version 2.1.3 5296d3d2a9bf48c154ab2acb5e44625776d821bf
c g++ (Gentoo 12.3.1_p20230526 p2) 12.3.1 20230526 -Wall -Wextra -O3 -DNDEBUG
c Sat Aug 9 07:26:21 PDT 2025 Linux cedar2.int.cedar.computecanada.ca 5.14.0-362.24.2.el9_3.x86_64 x86_64
c 
c --- [ limit ] --------------------------------------------------------------
c 
c setting time limit to 1600 seconds real time (due to '-t 1600')
c 
c --- [ parsing input ] ------------------------------------------------------
c 
c reading DIMACS file from './data/cnfs//6s210b037/6s210b037.22.cnf'
c opening file to read './data/cnfs//6s210b037/6s210b037.22.cnf'
c found 'p cnf 158976 452820' header
c parsed 452820 clauses in 0.08 seconds process time
c 
c --- [ options ] ------------------------------------------------------------
c 
c   --compact=false                (different from default 'true')
c   --decompose=false              (different from default 'true')
c   --deduplicate=false            (different from default 'true')
c   --elim=false                   (different from default 'true')
c   --probe=false                  (different from default 'true')
c   --reduce=false                 (different from default 'true')
c   --subsume=false                (different from default 'true')
c   --ternary=false                (different from default 'true')
c   --transred=false               (different from default 'true')
c   --vivify=false                 (different from default 'true')
c 
c --- [ solving ] ------------------------------------------------------------
c 
c time measured in process time since initialization
c 
c  seconds  reductions  redundant  irredundant
c         MB    restarts       trail       variables
c          level   conflicts       glue          remaining
c 
c *  0.08 67  0 0   0    0    0  0% 0 359521 111714 70%
c {  0.13 69  0 0   0    0    0  0% 0 359521 111714 70%
c }  0.18 70 697 0   3  299  229 58% 4 359521 111714 70%
c 1  0.18 70 697 0   3  299  229 58% 4 359521 111714 70%
c 
c --- [ result ] -------------------------------------------------------------
c 
s SATISFIABLE
v 1 2 3 4 5 6 7 8 9 10 11 12 13 14 15 16 17 18 19 20 21 22 23 24 25 26 27 28
v 29 30 31 32 33 34 35 36 37 38 39 40 41 42 43 44 45 46 47 48 49 50 51 52 53
v 54 55 56 57 58 59 60 61 62 63 64 65 66 67 68 69 70 71 72 73 74 75 76 77 78
v 79 80 81 82 83 84 85 86 87 88 89 90 91 92 93 94 95 96 97 98 99 100 101 102
v 103 104 105 106 107 108 109 110 111 112 113 114 115 116 117 118 119 120 121
v 122 123 124 125 126 127 128 129 -130 -131 -132 -133 -134 -135 -136 -137 -138
v -139 -140 -141 -142 -143 -144 -145 -146 -147 -148 -149 -150 -151 -152 -153
v -154 -155 -156 -157 -158 -159 -160 -161 -162 -163 -164 -165 -166 -167 -168
v -169 -170 -171 -172 -173 -174 -175 -176 -177 -178 -179 -180 -181 -182 -183
v -184 -185 -186 -187 -188 -189 -190 -191 -192 -193 -194 -195 -196 -197 -198
v -199 -200 -201 -202 -203 -204 -205 -206 -207 -208 -209 -210 -211 -212 -213
v -214 -215 -216 -217 -218 -219 -220 -221 -222 -223 -224 -225 -226 -227 -228
v -229 -230 -231 -232 -233 -234 -235 -236 -237 -238 -239 -240 -241 -242 -243
v -244 -245 -246 -247 -248 -249 -250 -251 -252 -253 -254 -255 -256 -257 -258
v -259 -260 -261 -262 -263 -264 -265 -266 -267 -268 -269 -270 -271 -272 -273
v -274 -275 -276 -277 -278 -279 -280 -281 -282 -283 -284 -285 -286 -287 -288
v -289 -290 -291 -292 -293 -294 -295 -296 -297 -298 -299 -300 -301 -302 -303
v -304 -305 -306 -307 -308 -309 -310 -311 -312 -313 -314 -315 -316 -317 -318
v -319 -320 -321 -322 -323 -324 -325 -326 -327 -328 -329 -330 -331 -332 -333
v -334 -335 -336 -337 -338 -339 -340 -341 -342 -343 -344 -345 -346 -347 -348
v -349 -350 -351 -352 -353 -354 -355 -356 -357 -358 -359 -360 -361 -362 -363
v -364 -365 -366 -367 -368 -369 -370 -371 -372 -373 -374 -375 -376 -377 -378
v -379 -380 -381 -382 -383 -384 -385 -386 -387 -388 -389 -390 -391 -392 -393
v -394 -395 -396 -397 -398 -399 -400 -401 -402 -403 -404 -405 -406 -407 -408
v -409 -410 -411 -412 -413 -414 -415 -416 -417 -418 -419 -420 -421 -422 -423
v -424 -425 -426 -427 -428 -429 -430 -431 -432 -433 -434 -435 -436 -437 -438
v -439 -440 -441 -442 -443 -444 -445 -446 -447 -448 -449 -450 -451 -452 -453
v -454 -455 -456 -457 -458 -459 -460 -461 -462 -463 -464 -465 -466 -467 -468
v -469 -470 -471 -472 -473 -474 -475 -476 -477 -478 -479 -480 -481 -482 -483
v -484 -485 -486 -487 -488 -489 -490 -491 -492 -493 -494 -495 -496 -497 -498
v -499 -500 -501 -502 -503 -504 -505 -506 -507 -508 -509 -510 -511 -512 -513
v -514 -515 -516 -517 -518 -519 -520 -521 -522 -523 -524 -525 -526 -527 -528
v -529 -530 -531 -532 -533 -534 -535 -536 -537 -538 -539 -540 -541 -542 -543
v -544 -545 -546 -547 -548 -549 -550 -551 -552 -553 -554 -555 -556 -557 -558
v -559 -560 -561 -562 -563 -564 -565 -566 -567 -568 -569 -570 -571 -572 -573
v -574 -575 -576 -577 -578 -579 -580 -581 -582 -583 -584 -585 -586 -587 -588
v -589 -590 -591 -592 -593 -594 -595 -596 -597 -598 -599 -600 -601 -602 -603
v -604 -605 -606 -607 -608 -609 -610 -611 -612 -613 -614 -615 -616 -617 -618
v -619 -620 -621 -622 -623 -624 -625 -626 -627 -628 -629 -630 -631 -632 -633
v -634 -635 -636 -637 -638 -639 -640 -641 -642 -643 -644 -645 -646 -647 -648
v -649 -650 -651 -652 -653 -654 -655 -656 -657 -658 -659 -660 -661 -662 -663
v -664 -665 -666 -667 -668 -669 -670 -671 -672 -673 -674 -675 -676 -677 -678
v -679 -680 -681 -682 -683 -684 -685 -686 -687 -688 -689 -690 -691 -692 -693
v -694 -695 -696 -697 -698 -699 -700 -701 -702 -703 -704 -705 -706 -707 -708
v -709 -710 -711 -712 -713 -714 -715 -716 -717 -718 -719 -720 -721 -722 -723
v -724 -725 -726 -727 -728 -729 -730 -731 -732 -733 -734 -735 -736 -737 -738
... skipped 14788 lines ...
v -158425 -158426 158427 158428 158429 158430 -158431 158432 -158433 -158434
v 158435 158436 158437 158438 -158439 158440 -158441 -158442 158443 158444
v 158445 158446 -158447 158448 -158449 -158450 158451 158452 158453 158454
v -158455 158456 -158457 -158458 158459 158460 158461 158462 -158463 158464
v -158465 -158466 158467 158468 158469 158470 -158471 158472 -158473 -158474
v 158475 158476 158477 158478 -158479 158480 -158481 -158482 158483 158484
v 158485 158486 -158487 158488 -158489 -158490 158491 158492 158493 158494
v -158495 158496 -158497 -158498 158499 158500 158501 158502 -158503 158504
v -158505 -158506 158507 158508 158509 158510 -158511 158512 -158513 -158514
v 158515 158516 158517 158518 -158519 158520 -158521 -158522 158523 158524
v 158525 158526 -158527 158528 -158529 -158530 158531 158532 158533 158534
v -158535 158536 -158537 -158538 158539 158540 158541 158542 -158543 158544
v -158545 -158546 158547 158548 158549 158550 -158551 158552 -158553 -158554
v 158555 158556 158557 158558 -158559 158560 -158561 -158562 158563 158564
v 158565 158566 -158567 158568 -158569 -158570 158571 158572 158573 158574
v -158575 158576 -158577 -158578 158579 158580 158581 158582 -158583 158584
v -158585 -158586 158587 158588 158589 158590 -158591 158592 -158593 -158594
v 158595 158596 158597 158598 -158599 158600 -158601 -158602 158603 158604
v 158605 158606 -158607 158608 -158609 -158610 158611 158612 158613 158614
v -158615 158616 -158617 -158618 158619 158620 158621 158622 -158623 158624
v -158625 -158626 158627 158628 158629 158630 -158631 158632 -158633 -158634
v 158635 158636 158637 158638 -158639 158640 -158641 -158642 158643 158644
v 158645 158646 -158647 158648 -158649 -158650 158651 158652 158653 158654
v -158655 158656 -158657 -158658 158659 158660 158661 158662 -158663 158664
v -158665 -158666 158667 158668 158669 158670 -158671 158672 -158673 -158674
v 158675 158676 158677 158678 -158679 158680 -158681 -158682 158683 158684
v 158685 158686 -158687 158688 -158689 -158690 158691 158692 158693 158694
v -158695 158696 -158697 -158698 158699 158700 158701 158702 -158703 158704
v -158705 -158706 158707 158708 158709 158710 -158711 158712 -158713 -158714
v 158715 158716 158717 158718 -158719 158720 -158721 -158722 158723 158724
v 158725 158726 -158727 158728 -158729 -158730 158731 158732 158733 158734
v -158735 158736 -158737 -158738 158739 158740 158741 158742 -158743 158744
v -158745 -158746 158747 158748 158749 158750 -158751 158752 -158753 -158754
v 158755 158756 158757 158758 -158759 158760 -158761 -158762 158763 158764
v 158765 158766 -158767 158768 -158769 -158770 158771 158772 158773 158774
v -158775 158776 -158777 -158778 158779 158780 158781 158782 -158783 158784
v -158785 -158786 158787 158788 158789 158790 -158791 158792 -158793 -158794
v 158795 158796 158797 158798 -158799 158800 -158801 -158802 158803 158804
v 158805 158806 -158807 158808 -158809 -158810 158811 158812 158813 158814
v -158815 158816 -158817 -158818 158819 158820 158821 158822 -158823 158824
v -158825 -158826 158827 158828 158829 158830 -158831 158832 -158833 -158834
v 158835 158836 158837 158838 -158839 158840 -158841 -158842 158843 158844
v 158845 158846 -158847 158848 -158849 -158850 158851 158852 158853 158854
v -158855 158856 -158857 -158858 158859 158860 158861 158862 -158863 158864
v -158865 -158866 158867 158868 158869 158870 -158871 158872 -158873 -158874
v 158875 158876 158877 158878 -158879 158880 -158881 -158882 158883 158884
v 158885 158886 -158887 158888 -158889 -158890 158891 158892 158893 158894
v -158895 158896 -158897 -158898 158899 158900 158901 158902 -158903 158904
v -158905 -158906 158907 158908 158909 158910 -158911 158912 -158913 -158914
v 158915 158916 158917 158918 -158919 158920 -158921 -158922 158923 158924
v 158925 158926 -158927 158928 -158929 -158930 158931 158932 158933 158934
v -158935 158936 -158937 -158938 158939 158940 158941 158942 -158943 158944
v -158945 -158946 158947 158948 158949 158950 -158951 158952 -158953 -158954
v 158955 158956 158957 158958 -158959 158960 -158961 -158962 158963 158964
v 158965 158966 -158967 158968 -158969 -158970 158971 158972 158973 158974
v 158975 -158976 0
c 
c --- [ run-time profiling ] -------------------------------------------------
c 
c process time taken by individual solving procedures
c (percentage relative to process time for solving)
c 
c         0.10   99.87% search
c         0.08   73.41% parse
c         0.05   51.74% lucky
c         0.05   48.05% unstable
c         0.00    0.00% simplify
c   =================================
c         0.10   55.19% solve
c 
c last line shows process time for solving
c (percentage relative to total process time)
c 
c --- [ statistics ] ---------------------------------------------------------
c 
c chronological:               118        39.46 %  of conflicts
c conflicts:                   299      2923.23    per second
c decisions:                  8391     82036.29    per second
c fixed:                     46775        29.42 %  of all variables
c learned:                     262        87.63 %  per conflict
c learned_lits:               4064       100.00 %  learned literals
c minimized:                     0         0.00 %  learned literals
c shrunken:                   1909        46.97 %  learned literals
c minishrunken:                249         6.13 %  learned literals
c otfs:                          0         0.00 %  of conflict
c propagations:             597372         5.84 M  per second
c restarts:                      3        99.67    interval
c subsumed:                     33         0.01 %  of all clauses
c 
c seconds are measured in process time for solving
c 
c --- [ resources ] ----------------------------------------------------------
c 
c total process time since initialization:         0.19    seconds
c total real time since initialization:            0.19    seconds
c maximum resident set size of process:           68.40    MB
c 
c --- [ shutting down ] ------------------------------------------------------
c 
c exit 10
